NAME:  test1
TYPE: AGTSP
COMMENT: gtsp tours
DIMENSION: 85 
GTSP_SETS: 13
EDGE_WEIGHT_TYPE: EXPLICIT
EDGE_WEIGHT_FORMAT: FULL_MATRIX 
EDGE_WEIGHT_SECTION
999999	0	999999	999999	999999	999999	999999	38931	38931	38931	38931	38931	38923	999999	38935	38935	38935	38935	38935	38935	38927	38935	38935	38935	38935	38935	38935	38927	38918	38918	38918	38918	38910	999999	999999	38932	38932	38932
999999	999999	0	999999	999999	999999	999999	38931	38931	38931	38931	38931	38931	38923	38935	38935	38935	999999	999999	999999	999999	38935	38935	38935	999999	999999	999999	999999	38918	38918	38918	38918	38918	38910	999999	38932	38932	38932
999999	999999	999999	0	999999	999999	999999	38931	38931	38931	38931	999999	999999	999999	38935	38935	38935	38935	999999	999999	999999	38935	38935	38935	38935	999999	999999	999999	38918	38918	38918	38918	38918	38918	38910	38932	38932	38932
999999	999999	999999	999999	0	999999	999999	38931	38931	38931	38931	38931	999999	999999	38935	38935	38935	38935	38935	999999	999999	38935	38935	38935	38935	38935	999999	999999	38918	38918	38918	38918	38918	999999	999999	38932	38932	38932
999999	999999	999999	999999	999999	0	999999	38931	38931	38931	38931	38931	38931	999999	38935	38935	38935	38935	38935	38935	999999	38935	38935	38935	38935	38935	38935	999999	38918	38918	38918	38918	38918	38918	999999	38932	38932	38932
999999	999999	999999	999999	999999	999999	0	38931	38931	38931	38931	38931	38931	38931	38935	38935	38935	38935	38935	38935	38935	38935	38935	38935	38935	38935	38935	38935	38918	38918	38918	38918	38918	38918	38918	38932	38932	38932
0	999999	999999	999999	999999	999999	999999	38931	38931	38931	38931	38923	999999	999999	38935	38935	38935	38935	38935	38927	999999	38935	38935	38935	38935	38935	38927	999999	38918	38918	38918	38910	999999	999999	999999	38932	38932	38932
38931	38931	38931	38931	38931	38923	999999	999999	0	999999	999999	999999	999999	999999	38907	38907	38907	38899	999999	999999	999999	38894	38894	38886	999999	999999	999999	999999	38931	38931	38931	38931	38931	38923	999999	38909	38909	38909
38931	38931	38931	38931	38931	38931	38923	999999	999999	0	999999	999999	999999	999999	38907	38907	38907	38907	38899	999999	999999	38894	38894	38894	38886	999999	999999	999999	38931	38931	38931	38931	38931	38931	38923	38909	38909	38909
38931	38931	38931	38931	999999	999999	999999	999999	999999	999999	0	999999	999999	999999	38907	38907	38907	38907	38907	38899	999999	38894	38894	38894	38894	38886	999999	999999	38931	38931	38931	38931	999999	999999	999999	38909	38909	38909
38931	38931	38931	38931	38931	999999	999999	999999	999999	999999	999999	0	999999	999999	38907	38907	38907	38907	38907	38907	38899	38894	38894	38894	38894	38894	38886	999999	38931	38931	38931	38931	38931	999999	999999	38909	38909	38909
38931	38931	38931	38931	38931	38931	999999	999999	999999	999999	999999	999999	0	999999	38907	38907	38907	38907	38907	38907	999999	38894	38894	38894	38894	38894	38894	38886	38931	38931	38931	38931	38931	38931	999999	38909	38909	38909
38931	38931	38931	38931	38931	38931	38931	999999	999999	999999	999999	999999	999999	0	38907	38907	38907	38907	38907	38907	38907	38894	38894	38894	38894	38894	38894	38894	38931	38931	38931	38931	38931	38931	38931	38909	38909	38909
38931	38931	38931	38931	38923	999999	999999	0	999999	999999	999999	999999	999999	999999	38907	38907	38899	999999	999999	999999	999999	38894	38886	999999	999999	999999	999999	999999	38931	38931	38931	38931	38923	999999	999999	38909	38909	38901
38935	38935	38935	38935	38935	38935	38927	38907	38907	38907	38899	999999	999999	999999	999999	0	999999	999999	999999	999999	999999	38916	38916	38916	38916	38908	999999	999999	38919	38919	38919	38919	38911	999999	999999	38931	38931	38931
38935	38935	38935	999999	999999	999999	999999	38907	38907	38907	38907	38899	999999	999999	999999	999999	0	999999	999999	999999	999999	38916	38916	38916	38916	38916	38908	999999	38919	38919	38919	38919	38919	38911	999999	38931	38931	38931
38935	38935	38935	38935	999999	999999	999999	38907	38907	38907	38907	38907	38899	999999	999999	999999	999999	0	999999	999999	999999	38916	38916	38916	38916	38916	38916	38908	38919	38919	38919	38919	38919	38919	38911	38931	38931	38931
38935	38935	38935	38935	38935	999999	999999	38907	38907	38907	38907	38907	38907	38899	999999	999999	999999	999999	0	999999	999999	38916	38916	38916	38916	38916	999999	999999	38919	38919	38919	38919	38919	999999	999999	38931	38931	38931
38935	38935	38935	38935	38935	38935	999999	38907	38907	38907	38907	38907	38907	999999	999999	999999	999999	999999	999999	0	999999	38916	38916	38916	38916	38916	38916	999999	38919	38919	38919	38919	38919	38919	999999	38931	38931	38931
38935	38935	38935	38935	38935	38935	38935	38907	38907	38907	38907	38907	38907	38907	999999	999999	999999	999999	999999	999999	0	38916	38916	38916	38916	38916	38916	38916	38919	38919	38919	38919	38919	38919	38919	38931	38931	38931
38935	38935	38935	38935	38935	38927	999999	38907	38907	38899	999999	999999	999999	999999	0	999999	999999	999999	999999	999999	999999	38916	38916	38916	38908	999999	999999	999999	38919	38919	38919	38911	999999	999999	999999	38931	38931	38931
38935	38935	38935	38935	38935	38935	38927	38894	38894	38886	999999	999999	999999	999999	38916	38916	38916	38916	38908	999999	999999	999999	0	999999	999999	999999	999999	999999	38939	38939	38939	38939	38939	38939	38931	38902	38902	38902
38935	38935	38935	999999	999999	999999	999999	38894	38894	38894	38886	999999	999999	999999	38916	38916	38916	38916	38916	38908	999999	999999	999999	0	999999	999999	999999	999999	38939	38939	38939	999999	999999	999999	999999	38902	38902	38902
38935	38935	38935	38935	999999	999999	999999	38894	38894	38894	38894	38886	999999	999999	38916	38916	38916	38916	38916	38916	38908	999999	999999	999999	0	999999	999999	999999	38939	38939	38939	38939	999999	999999	999999	38902	38902	38902
38935	38935	38935	38935	38935	999999	999999	38894	38894	38894	38894	38894	38886	999999	38916	38916	38916	38916	38916	999999	999999	999999	999999	999999	999999	0	999999	999999	38939	38939	38939	38939	38939	999999	999999	38902	38902	38902
38935	38935	38935	38935	38935	38935	999999	38894	38894	38894	38894	38894	38894	38886	38916	38916	38916	38916	38916	38916	999999	999999	999999	999999	999999	999999	0	999999	38939	38939	38939	38939	38939	38939	999999	38902	38902	38902
38935	38935	38935	38935	38935	38935	38935	38894	38894	38894	38894	38894	38894	38894	38916	38916	38916	38916	38916	38916	38916	999999	999999	999999	999999	999999	999999	0	38939	38939	38939	38939	38939	38939	38939	38902	38902	38902
38935	38935	38935	38935	38935	38927	999999	38894	38886	999999	999999	999999	999999	999999	38916	38916	38916	38908	999999	999999	999999	0	999999	999999	999999	999999	999999	999999	38939	38939	38939	38939	38939	38931	999999	38902	38902	38894
38918	38918	38918	38918	38910	999999	999999	38931	38931	38931	38931	38931	38923	999999	38919	38919	38919	38919	38911	999999	999999	38939	38939	38939	38939	38939	38939	38931	999999	0	999999	999999	999999	999999	999999	38946	38946	999999
38918	38918	38918	38918	38918	38910	999999	38931	38931	38931	38931	38931	38931	38923	38919	38919	38919	38919	38919	38911	999999	38939	38939	38939	999999	999999	999999	999999	999999	999999	0	999999	999999	999999	999999	38946	38946	38946
38918	38918	38918	38918	38918	38918	38910	38931	38931	38931	38931	999999	999999	999999	38919	38919	38919	38919	38919	38919	38911	38939	38939	38939	38939	999999	999999	999999	999999	999999	999999	0	999999	999999	999999	38946	38946	38946
38918	38918	38918	38918	38918	999999	999999	38931	38931	38931	38931	38931	999999	999999	38919	38919	38919	38919	38919	999999	999999	38939	38939	38939	38939	38939	999999	999999	999999	999999	999999	999999	0	999999	999999	38946	38946	38946
38918	38918	38918	38918	38918	38918	999999	38931	38931	38931	38931	38931	38931	999999	38919	38919	38919	38919	38919	38919	999999	38939	38939	38939	38939	38939	38939	999999	999999	999999	999999	999999	999999	0	999999	38946	38946	38946
38918	38918	38918	38918	38918	38918	38918	38931	38931	38931	38931	38931	38931	38931	38919	38919	38919	38919	38919	38919	38919	38939	38939	38939	38939	38939	38939	38939	999999	999999	999999	999999	999999	999999	0	38946	38946	38946
38918	38918	38918	38910	999999	999999	999999	38931	38931	38931	38931	38923	999999	999999	38919	38919	38919	38911	999999	999999	999999	38939	38939	38939	38939	38939	38931	999999	0	999999	999999	999999	999999	999999	999999	38946	38946	38946
38932	38932	38932	38932	38932	38924	999999	38909	38909	38909	38901	999999	999999	999999	38931	38931	38931	38931	38931	38923	999999	38902	38902	38902	38894	999999	999999	999999	38946	38946	999999	999999	999999	999999	999999	999999	0	999999
38932	38932	38932	38932	38932	38932	38924	38909	38909	38909	38909	38901	999999	999999	38931	38931	38931	38931	38931	38931	38923	38902	38902	38902	38902	38894	999999	999999	38946	38946	38946	999999	999999	999999	999999	999999	999999	0
38932	38932	38932	38932	999999	999999	999999	38909	38909	38909	38909	38909	38901	999999	38931	38931	38931	38931	999999	999999	999999	38902	38902	38902	38902	38902	38894	999999	38946	38946	38946	38946	999999	999999	999999	999999	999999	999999
GTSP_SET_SECTION:
1 1 2 3 4 5 6 7 -1
2 8 9 10 11 12 13 14 -1
3 15 16 17 18 19 20 21 -1
4 22 23 24 25 26 27 28 -1
5 29 30 31 32 33 34 35 -1
6 36 37 38 39 40 41 42 -1
7 43 44 45 46 47 48 49 -1
8 50 51 52 53 54 55 56 -1
9 57 58 59 60 61 62 63 -1
10 64 65 66 67 68 69 70 -1
11 71 72 73 74 75 76 77 -1
12 78 79 80 81 82 83 84 -1
13 85 -1
EOF